nodes = 26;
edges = 82;
starts = [1, 1, 2, 3, 4, 4, 5, 5, 6, 7, 7, 8, 8, 9, 9, 10, 10, 10, 11, 11, 12, 12, 13, 13, 14, 15, 16, 17, 18, 18, 19, 20, 21, 21, 22, 22, 23, 24, 25, 26, 26, 7, 14, 4, 4, 3, 5, 4, 22, 1, 9, 16, 15, 25, 8, 15, 7, 14, 22, 12, 19, 19, 24, 1, 24, 10, 26, 6, 20, 11, 17, 13, 23, 2, 5, 5, 10, 18, 1, 21, 2, 25];
ends = [7, 14, 4, 4, 3, 5, 4, 22, 1, 9, 16, 15, 25, 8, 15, 7, 14, 22, 12, 19, 19, 24, 1, 24, 10, 26, 6, 20, 11, 17, 13, 23, 2, 5, 5, 10, 18, 1, 21, 2, 25, 1, 1, 2, 3, 4, 4, 5, 5, 6, 7, 7, 8, 8, 9, 9, 10, 10, 10, 11, 11, 12, 12, 13, 13, 14, 15, 16, 17, 18, 18, 19, 20, 21, 21, 22, 22, 23, 24, 25, 26, 26];
weights = [10, 182, 19, 16, 16, 66, 66, 213, 18, 159, 19, 164, 414, 177, 339, 179, 9, 794, 188, 329, 144, 378, 210, 106, 9, 135, 12, 9, 78, 20, 127, 20, 43, 58, 213, 794, 9, 109, 60, 213, 114, 10, 182, 19, 16, 16, 66, 66, 213, 18, 159, 19, 164, 414, 177, 339, 179, 9, 794, 188, 329, 144, 378, 210, 106, 9, 135, 12, 9, 78, 20, 127, 20, 43, 58, 213, 794, 9, 109, 60, 213, 114];
start = 17;
end= 3;
tasks = 5;
task = array2d(1..tasks, 1..nodes, [0, 0, 0, 0, 0, 1, 0, 0, 0, 0, 0, 0, 0, 0, 0, 0, 0, 0, 0, 0, 0, 0, 0, 0, 0, 0, 0, 0, 0, 0, 0, 0, 0, 0, 0, 0, 0, 1, 0, 0, 0, 0, 0, 0, 0, 0, 0, 0, 0, 0, 0, 0, 0, 0, 0, 0, 0, 0, 0, 0, 0, 0, 0, 0, 1, 0, 0, 0, 0, 0, 0, 0, 0, 0, 0, 0, 0, 0, 0, 0, 0, 0, 0, 0, 0, 0, 0, 0, 0, 0, 0, 0, 1, 0, 0, 0, 0, 0, 0, 0, 0, 0, 0, 0, 0, 0, 0, 0, 0, 0, 0, 0, 0, 0, 0, 0, 0, 0, 0, 0, 1, 0, 0, 0, 0, 0, 0, 0, 0, 0]);
